g3 0 1 0	# problem d4n12R3R7d0005d1
 12 9 1 0 3	# vars, constraints, objectives, ranges, eqns
 2 1	# nonlinear constraints, objectives
 0 0	# network constraints: nonlinear, linear
 12 12 12	# nonlinear vars in constraints, objectives, both
 0 0 0 1	# linear network variables; functions; arith, flags
 0 0 0 0 0	# discrete variables: binary, integer, nonlinear (b,c,o)
 108 12	# nonzeros in Jacobian, gradients
 0 0	# max name lengths: constraints, variables
 0 0 0 0 0	# common exprs: b,c,o,c1,o1
b
0 0.24 2.41
0 0.75 2.15
0 0.27 2.45
0 0.23 2.51
0 0.7 2.89
0 0.15 2.92
0 0.41 2.49
0 0.33 2.97
0 0.02 3
0 0.25 2.47
0 0.72 2.15
0 0.23 2.57
r
2 92.228
2 276.861
4 122.623
4 68.026
4 84.16
2 81.948
2 70.113
2 60.177
2 69.879
C0
o2
o2
o2
n0.38
v3
v6
v6
C1
o54
9
o16
o2
o2
o2
n5.55
v3
v6
v6
o2
o2
o2
o2
n2.25
v0
v3
v7
v8
o2
o2
o2
o2
n2.51
v1
v1
v5
v10
o2
o2
o2
o2
n6.74
v2
v4
v7
v11
o2
o2
o2
o2
n7.72
v3
v7
v11
v11
o2
o2
o2
o2
n3.59
v4
v4
v9
v11
o2
o2
o2
o2
n8.38
v4
v10
v10
v10
o2
o2
o2
o2
n8.66
v5
v5
v5
v11
o2
o2
o2
o2
n7.88
v5
v8
v9
v11
C2
n0
C3
n0
C4
n0
C5
n0
C6
n0
C7
n0
C8
n0
O0 0
o54
9
o2
o2
o2
n6.52
v3
v6
v6
o2
o2
o2
o2
n3.75
v0
v3
v7
v8
o2
o2
o2
o2
n4.82
v1
v1
v5
v10
o2
o2
o2
o2
n7.73
v2
v4
v7
v11
o2
o2
o2
o2
n7.02
v3
v7
v11
v11
o2
o2
o2
o2
n8.06
v4
v4
v9
v11
o16
o2
o2
o2
o2
n3.76
v4
v10
v10
v10
o2
o2
o2
o2
n2.66
v5
v5
v5
v11
o2
o2
o2
o2
n5.95
v5
v8
v9
v11
k11
9
18
27
36
45
54
63
72
81
90
99
J0 12
0 -4.51
1 7.99
2 9.99
3 9.5
4 3.4
5 1.89
6 2.1
7 9.49
8 6.85
9 5.33
10 1.21
11 8.49
J1 12
0 6.05
1 -0.95
2 3.61
3 8.27
4 3.51
5 -2.76
6 -4.75
7 1.97
8 3.76
9 9.82
10 -0.01
11 9.58
J2 12
0 8.6
1 9.75
2 5.57
3 9.71
4 6.21
5 9.27
6 2.1
7 9.78
8 8.97
9 1
10 3.77
11 8.1
J3 12
0 -8.59
1 4.94
2 2.88
3 4.02
4 6.52
5 8.96
6 5.68
7 6.83
8 0.08
9 5.02
10 0.53
11 7.25
J4 12
0 2.86
1 9.27
2 7.8
3 8.37
4 0.87
5 8
6 1.9
7 -6.33
8 6.93
9 7.15
10 6.96
11 6.09
J5 12
0 8.23
1 1.66
2 7.52
3 3.1
4 5.93
5 6.26
6 8.99
7 -4.75
8 1.51
9 3.63
10 6.11
11 9.09
J6 12
0 -2.42
1 3.86
2 8.55
3 2.52
4 1.22
5 -5.7
6 6.34
7 7.34
8 6.4
9 3.92
10 6.36
11 9.84
J7 12
0 -8.43
1 6
2 3.44
3 2.22
4 1.4
5 6.55
6 6.66
7 6.68
8 7.38
9 5.72
10 -7.21
11 9.36
J8 12
0 2.89
1 6.76
2 4.33
3 4.07
4 8.83
5 4.7
6 5.92
7 -5.33
8 4.4
9 -1.89
10 8.17
11 4.38
G0 12
0 8.87
1 -9.02
2 5.09
3 8.36
4 4.96
5 4.69
6 0.59
7 5.65
8 -9.39
9 4.28
10 6.02
11 9.16
